# Un '#' en début de ligne désigne un commentaire
#
# Les deux premiers entiers désignent la largeur (en x) et la
# hauteur (en y) du jeu
9 5
# La position des trous sur le plateau de jeu
# Un trou est marqué par un '%', sinon il y a un '*'
# '>' marque la position de départ, et '$' celles d'arrivée
****$****
*****%***
>*****$**
**%******
*********
# La liste des cartes utilisées dans le jeu
V_LINE  4
H_LINE  3
V_CROSS 5
H_CROSS 5
X_CROSS 5
L_TURN  5
R_TURN  4
D_END   9
# Optionnellement les cartes de jeu supplémentaire
# pour remplacer une carte en jeu
BOULDER 3
# Et les cartes pour casser et réparer des outils
B_AXE   3
B_LAMP  3
B_CART  3
R_AXE   2
R_LAMP  2
R_CART  2
R_ALL   3

